3608.91
0 7 8 9 10 13 67 14 98 82 0
0 17 18 19 20 21 22 23 24 96 25 2 127 0
0 28 29 30 31 32 33 34 35 36 37 40 150 107 54 74 0
0 38 39 41 42 43 44 45 46 47 48 49 50 105 130 123 0
0 55 56 57 58 59 60 61 62 63 64 65 142 111 112 0
0 71 72 73 75 76 77 79 80 86 5 16 0
0 84 85 87 88 89 90 91 92 93 94 95 97 68 110 139 0
0 100 101 103 104 106 108 114 81 109 51 6 0
0 113 115 116 117 118 119 120 128 3 27 11 78 0
0 122 124 125 126 129 131 132 133 134 138 140 1 0
0 143 144 146 66 15 53 26 102 99 69 70 83 121 0
0 147 148 149 52 12 135 136 141 4 137 145 0
